% Generado automáticamente desde instancia_05_grande.pca.
% No editar manualmente: use el conversor PCA.

n = 40;
m = 8;
p = [10, 6, 0, 4, 4, 0, 6, 10];

escala_v = 100;
v = [0, 10, 25, 40, 60, 75, 90, 100];

escala_costo = 1;
ce = [1, 2, 4, 3, 3, 4, 2, 1];
ct = 45;

c = array2d(1..8, 1..8, [
    0, 1, 2, 4, 6, 7, 9, 10,
    1, 0, 1, 3, 5, 6, 8, 9,
    2, 1, 0, 2, 4, 5, 7, 8,
    4, 3, 2, 0, 2, 3, 5, 6,
    6, 5, 4, 2, 0, 2, 3, 4,
    7, 6, 5, 3, 2, 0, 1, 2,
    9, 8, 7, 5, 3, 1, 0, 1,
    10, 9, 8, 6, 4, 2, 1, 0
]);
